k = 50;
b = 25;
AtomicConstraints =  [|
2, 42|
	2, 43|
	2, 44|
	2, 45|
	2, 46|
	2, 47|
	2, 48|
	2, 49|
	2, 50|
	3, 42|
	3, 43|
	3, 44|
	3, 45|
	3, 46|
	3, 47|
	3, 48|
	3, 49|
	3, 50|
	4, 42|
	4, 43|
	4, 44|
	4, 45|
	4, 46|
	4, 47|
	4, 48|
	4, 49|
	4, 50|
	5, 43|
	5, 44|
	5, 45|
	5, 46|
	5, 47|
	5, 48|
	5, 49|
	5, 50|
	6, 45|
	6, 46|
	6, 47|
	6, 48|
	6, 49|
	6, 50|
	7, 46|
	7, 47|
	7, 48|
	7, 49|
	7, 50|
	8, 47|
	8, 48|
	8, 49|
	8, 50|
	9, 48|
	9, 49|
	9, 50|
	10, 49|
	10, 50|
	11, 50|
	1, 41|
	1, 42|
	1, 43|
	1, 44|
	1, 45|
	1, 46|
	1, 47|
	1, 48|
	1, 49|
	1, 50|
	14, 1|
	14, 12|
	14, 16|
	14, 41|
	14, 42|
	14, 43|
	14, 44|
	14, 45|
	14, 46|
	14, 47|
	14, 48|
	14, 49|
	14, 50|
	15, 1|
	15, 12|
	15, 16|
	15, 27|
	15, 41|
	15, 42|
	15, 43|
	15, 44|
	15, 45|
	15, 46|
	15, 47|
	15, 48|
	15, 49|
	15, 50|
	12, 41|
	12, 42|
	12, 43|
	12, 44|
	12, 45|
	12, 46|
	12, 47|
	12, 48|
	12, 49|
	12, 50|
	17, 12|
	17, 16|
	17, 27|
	17, 36|
	17, 41|
	17, 42|
	17, 43|
	17, 44|
	17, 45|
	17, 46|
	17, 47|
	17, 48|
	17, 49|
	17, 50|
	18, 16|
	18, 27|
	18, 36|
	18, 37|
	18, 42|
	18, 43|
	18, 44|
	18, 45|
	18, 46|
	18, 47|
	18, 48|
	18, 49|
	18, 50|
	19, 27|
	19, 36|
	19, 37|
	19, 38|
	19, 42|
	19, 43|
	19, 44|
	19, 45|
	19, 46|
	19, 47|
	19, 48|
	19, 49|
	19, 50|
	20, 36|
	20, 37|
	20, 38|
	20, 39|
	20, 42|
	20, 43|
	20, 44|
	20, 45|
	20, 46|
	20, 47|
	20, 48|
	20, 49|
	20, 50|
	21, 37|
	21, 38|
	21, 39|
	21, 40|
	21, 42|
	21, 43|
	21, 44|
	21, 45|
	21, 46|
	21, 47|
	21, 48|
	21, 49|
	21, 50|
	22, 2|
	22, 38|
	22, 39|
	22, 40|
	22, 42|
	22, 43|
	22, 44|
	22, 45|
	22, 46|
	22, 47|
	22, 48|
	22, 49|
	22, 50|
	23, 2|
	23, 3|
	23, 39|
	23, 40|
	23, 42|
	23, 43|
	23, 44|
	23, 45|
	23, 46|
	23, 47|
	23, 48|
	23, 49|
	23, 50|
	24, 2|
	24, 3|
	24, 4|
	24, 40|
	24, 42|
	24, 43|
	24, 44|
	24, 45|
	24, 46|
	24, 47|
	24, 48|
	24, 49|
	24, 50|
	25, 2|
	25, 3|
	25, 4|
	25, 5|
	25, 42|
	25, 43|
	25, 44|
	25, 45|
	25, 46|
	25, 47|
	25, 48|
	25, 49|
	25, 50|
	26, 3|
	26, 4|
	26, 5|
	26, 6|
	26, 42|
	26, 43|
	26, 44|
	26, 45|
	26, 46|
	26, 47|
	26, 48|
	26, 49|
	26, 50|
	16, 41|
	16, 42|
	16, 43|
	16, 44|
	16, 45|
	16, 46|
	16, 47|
	16, 48|
	16, 49|
	16, 50|
	28, 4|
	28, 5|
	28, 6|
	28, 7|
	28, 43|
	28, 44|
	28, 45|
	28, 46|
	28, 47|
	28, 48|
	28, 49|
	28, 50|
	29, 5|
	29, 6|
	29, 7|
	29, 8|
	29, 45|
	29, 46|
	29, 47|
	29, 48|
	29, 49|
	29, 50|
	30, 6|
	30, 7|
	30, 8|
	30, 9|
	30, 46|
	30, 47|
	30, 48|
	30, 49|
	30, 50|
	31, 7|
	31, 8|
	31, 9|
	31, 10|
	31, 47|
	31, 48|
	31, 49|
	31, 50|
	32, 8|
	32, 9|
	32, 10|
	32, 11|
	32, 48|
	32, 49|
	32, 50|
	33, 9|
	33, 10|
	33, 11|
	33, 13|
	33, 49|
	33, 50|
	34, 10|
	34, 11|
	34, 13|
	34, 50|
	35, 11|
	35, 13|
	27, 42|
	27, 43|
	27, 44|
	27, 45|
	27, 46|
	27, 47|
	27, 48|
	27, 49|
	27, 50|
	36, 42|
	36, 43|
	36, 44|
	36, 45|
	36, 46|
	36, 47|
	36, 48|
	36, 49|
	36, 50|
	37, 42|
	37, 43|
	37, 44|
	37, 45|
	37, 46|
	37, 47|
	37, 48|
	37, 49|
	37, 50|
	38, 42|
	38, 43|
	38, 44|
	38, 45|
	38, 46|
	38, 47|
	38, 48|
	38, 49|
	38, 50|
	39, 42|
	39, 43|
	39, 44|
	39, 45|
	39, 46|
	39, 47|
	39, 48|
	39, 49|
	39, 50|
	40, 42|
	40, 43|
	40, 44|
	40, 45|
	40, 46|
	40, 47|
	40, 48|
	40, 49|
	40, 50|];
DisjunctiveConstraints =  [|
2, 40, 2, 3|
	3, 2, 3, 4|
	4, 3, 4, 5|
	5, 4, 5, 6|
	6, 5, 6, 7|
	7, 6, 7, 8|
	8, 7, 8, 9|
	9, 8, 9, 10|
	10, 9, 10, 11|
	11, 10, 11, 13|
	15, 14, 15, 17|
	12, 1, 12, 16|
	17, 15, 17, 18|
	18, 17, 18, 19|
	19, 18, 19, 20|
	20, 19, 20, 21|
	21, 20, 21, 22|
	22, 21, 22, 23|
	23, 22, 23, 24|
	24, 23, 24, 25|
	25, 24, 25, 26|
	26, 25, 26, 28|
	16, 12, 16, 27|
	28, 26, 28, 29|
	29, 28, 29, 30|
	30, 29, 30, 31|
	31, 30, 31, 32|
	32, 31, 32, 33|
	33, 32, 33, 34|
	34, 33, 34, 35|
	27, 16, 27, 36|
	36, 27, 36, 37|
	37, 36, 37, 38|
	38, 37, 38, 39|
	39, 38, 39, 40|
	40, 39, 40, 2|
	43, 42, 43, 44|
	44, 43, 44, 45|
	45, 44, 45, 46|
	46, 45, 46, 47|
	47, 46, 47, 48|
	48, 47, 48, 49|
	49, 48, 49, 50|];
SoftAtomicConstraints =  [|
40, 2|
2, 3|
3, 4|
4, 5|
5, 6|
6, 7|
7, 8|
8, 9|
9, 10|
10, 11|
1, 12|
11, 13|
14, 15|
12, 16|
15, 17|
17, 18|
18, 19|
19, 20|
20, 21|
21, 22|
22, 23|
23, 24|
24, 25|
25, 26|
16, 27|
26, 28|
28, 29|
29, 30|
30, 31|
31, 32|
32, 33|
33, 34|
34, 35|
27, 36|
36, 37|
37, 38|
38, 39|
39, 40|
42, 43|
43, 44|
44, 45|
45, 46|
46, 47|
47, 48|
48, 49|
49, 50|];
DirectSuccessors =  [];